10J3M/DAT/10J3MUNX-14.dat
10 3
18.176 4.2633
16.4857 4.0603
40.9204 6.3969
5.3521 2.3135
23.2608 4.8229
33.5103 5.7888
32.2213 5.6764
49.9467 7.0673
48.3841 6.9559
26.064 5.1053
52.4506