10J3M/SOL/10J3MUNX-14.sol
solution status: optimal solution found
objective value:                              85.9244
x#1#1                                               1 	(obj:0)
x#2#1                                               1 	(obj:0)
x#3#3                                               1 	(obj:0)
x#4#2                                               1 	(obj:0)
x#5#2                                               1 	(obj:0)
x#6#2                                               1 	(obj:0)
x#7#2                               0.135384130472374 	(obj:0)
x#7#3                               0.864615869527626 	(obj:0)
x#8#1                                               1 	(obj:0)
x#9#1                                               1 	(obj:0)
x#10#1                               0.86234125859186 	(obj:0)
x#10#2                              0.137658741408141 	(obj:0)
z                                             85.9244 	(obj:1)
